VER
2

OBJSENSE
MAX

VAR
51 2
L+ 15
F 36

INT
9
0
1
2
3
4
5
6
7
8

CON
43 2
L= 5
L- 38

PSDCON
6
3
3
3
3
3
3

PSDCONRANK1
6
0
1
2
3
4
5

OBJACOORD
6
9 1
10 1
11 1
12 1
13 1
14 1

ACOORD
282
0 15 -0.113528445688638
0 16 0.113528445688638
0 17 0.800732290229065
0 18 -0.800732290229065
0 19 -0.0918606714418866
0 20 0.0918606714418866
0 21 -1.01675427281378
0 22 1.01675427281378
0 23 -1.88245895493526
0 24 1.88245895493526
0 25 1.78482983886684
0 26 -1.78482983886684
0 27 -0.113528445688638
0 28 0.113528445688638
0 29 0.800732290229065
0 30 -0.800732290229065
0 31 -0.0918606714418866
0 32 0.0918606714418866
0 33 -1.01675427281378
0 34 1.01675427281378
0 35 -1.88245895493526
0 36 1.88245895493526
0 37 1.78482983886684
0 38 -1.78482983886684
0 39 -0.113528445688638
0 40 0.113528445688638
0 41 0.800732290229065
0 42 -0.800732290229065
0 43 -0.0918606714418866
0 44 0.0918606714418866
0 45 -1.01675427281378
0 46 1.01675427281378
0 47 -1.88245895493526
0 48 1.88245895493526
0 49 1.78482983886684
0 50 -1.78482983886684
1 15 -0.200188986216284
1 16 0.200188986216284
1 17 2.79969195497271
1 18 -2.79969195497271
1 19 0.927071973161696
1 20 -0.927071973161696
1 21 0.0219171966611851
1 22 -0.0219171966611851
1 23 -0.33531744310771
1 24 0.33531744310771
1 25 0.288185578130522
1 26 -0.288185578130522
1 27 -0.200188986216284
1 28 0.200188986216284
1 29 2.79969195497271
1 30 -2.79969195497271
1 31 0.927071973161696
1 32 -0.927071973161696
1 33 0.0219171966611851
1 34 -0.0219171966611851
1 35 -0.33531744310771
1 36 0.33531744310771
1 37 0.288185578130522
1 38 -0.288185578130522
1 39 -0.200188986216284
1 40 0.200188986216284
1 41 2.79969195497271
1 42 -2.79969195497271
1 43 0.927071973161696
1 44 -0.927071973161696
1 45 0.0219171966611851
1 46 -0.0219171966611851
1 47 -0.33531744310771
1 48 0.33531744310771
1 49 0.288185578130522
1 50 -0.288185578130522
2 15 2.26519543357233
2 16 -2.26519543357233
2 17 0.396192981567861
2 18 -0.396192981567861
2 19 -0.911818876809533
2 20 0.911818876809533
2 21 -0.473818193712876
2 22 0.473818193712876
2 23 0.357613407519846
2 24 -0.357613407519846
2 25 0.29963854270211
2 26 -0.29963854270211
2 27 2.26519543357233
2 28 -2.26519543357233
2 29 0.396192981567861
2 30 -0.396192981567861
2 31 -0.911818876809533
2 32 0.911818876809533
2 33 -0.473818193712876
2 34 0.473818193712876
2 35 0.357613407519846
2 36 -0.357613407519846
2 37 0.29963854270211
2 38 -0.29963854270211
2 39 2.26519543357233
2 40 -2.26519543357233
2 41 0.396192981567861
2 42 -0.396192981567861
2 43 -0.911818876809533
2 44 0.911818876809533
2 45 -0.473818193712876
2 46 0.473818193712876
2 47 0.357613407519846
2 48 -0.357613407519846
2 49 0.29963854270211
2 50 -0.29963854270211
3 15 -0.197218455541783
3 16 0.197218455541783
3 17 -2.94540437877527
3 18 2.94540437877527
3 19 0.393275176045361
3 20 -0.393275176045361
3 21 -1.40070378045094
3 22 1.40070378045094
3 23 -0.531721209385523
3 24 0.531721209385523
3 25 0.621011307663875
3 26 -0.621011307663875
3 27 -0.197218455541783
3 28 0.197218455541783
3 29 -2.94540437877527
3 30 2.94540437877527
3 31 0.393275176045361
3 32 -0.393275176045361
3 33 -1.40070378045094
3 34 1.40070378045094
3 35 -0.531721209385523
3 36 0.531721209385523
3 37 0.621011307663875
3 38 -0.621011307663875
3 39 -0.197218455541783
3 40 0.197218455541783
3 41 -2.94540437877527
3 42 2.94540437877527
3 43 0.393275176045361
3 44 -0.393275176045361
3 45 -1.40070378045094
3 46 1.40070378045094
3 47 -0.531721209385523
3 48 0.531721209385523
3 49 0.621011307663875
3 50 -0.621011307663875
4 15 -1.50752258512374
4 16 1.50752258512374
4 17 -2.33368449889262
4 18 2.33368449889262
4 19 1.2449030103169
4 20 -1.2449030103169
4 21 0.174623727107792
4 22 -0.174623727107792
4 23 -1.05056920650983
4 24 1.05056920650983
4 25 0.549349147991792
4 26 -0.549349147991792
4 27 -1.50752258512374
4 28 1.50752258512374
4 29 -2.33368449889262
4 30 2.33368449889262
4 31 1.2449030103169
4 32 -1.2449030103169
4 33 0.174623727107792
4 34 -0.174623727107792
4 35 -1.05056920650983
4 36 1.05056920650983
4 37 0.549349147991792
4 38 -0.549349147991792
4 39 -1.50752258512374
4 40 1.50752258512374
4 41 -2.33368449889262
4 42 2.33368449889262
4 43 1.2449030103169
4 44 -1.2449030103169
4 45 0.174623727107792
4 46 -0.174623727107792
4 47 -1.05056920650983
4 48 1.05056920650983
4 49 0.549349147991792
4 50 -0.549349147991792
5 15 1
5 16 1
5 19 1
5 20 1
5 25 1
5 26 1
5 27 1
5 28 1
5 31 1
5 32 1
5 37 1
5 38 1
5 39 1
5 40 1
5 43 1
5 44 1
5 49 1
5 50 1
6 0 1
6 3 1
6 6 1
7 9 1
7 0 -1
8 10 1
8 3 -1
9 11 1
9 6 -1
10 12 1
10 0 -1
11 13 1
11 3 -1
12 14 1
12 6 -1
13 9 1
13 15 -1
13 19 -1
13 25 -1
14 10 1
14 27 -1
14 31 -1
14 37 -1
15 11 1
15 39 -1
15 43 -1
15 49 -1
16 12 1
16 16 -1
16 20 -1
16 26 -1
17 13 1
17 28 -1
17 32 -1
17 38 -1
18 14 1
18 40 -1
18 44 -1
18 50 -1
19 1 1
19 2 1
20 4 1
20 5 1
21 7 1
21 8 1
22 15 1
22 19 1
22 25 1
22 1 -1
23 27 1
23 31 1
23 37 1
23 4 -1
24 39 1
24 43 1
24 49 1
24 7 -1
25 16 1
25 20 1
25 26 1
25 2 -1
26 28 1
26 32 1
26 38 1
26 5 -1
27 40 1
27 44 1
27 50 1
27 8 -1
28 0 1
29 3 1
30 6 1
31 1 1
32 4 1
33 7 1
34 2 1
35 5 1
36 8 1
37 9 1
38 10 1
39 11 1
40 12 1
41 13 1
42 14 1

BCOORD
20
5 -1
6 -1
19 -1
20 -1
21 -1
28 -1
29 -1
30 -1
31 -1
32 -1
33 -1
34 -1
35 -1
36 -1
37 -1
38 -1
39 -1
40 -1
41 -1
42 -1

HCOORD
36
0 15 0 0 1
0 17 1 0 1
0 19 1 1 1
0 21 2 0 1
0 23 2 1 1
0 25 2 2 1
1 16 0 0 1
1 18 1 0 1
1 20 1 1 1
1 22 2 0 1
1 24 2 1 1
1 26 2 2 1
2 27 0 0 1
2 29 1 0 1
2 31 1 1 1
2 33 2 0 1
2 35 2 1 1
2 37 2 2 1
3 28 0 0 1
3 30 1 0 1
3 32 1 1 1
3 34 2 0 1
3 36 2 1 1
3 38 2 2 1
4 39 0 0 1
4 41 1 0 1
4 43 1 1 1
4 45 2 0 1
4 47 2 1 1
4 49 2 2 1
5 40 0 0 1
5 42 1 0 1
5 44 1 1 1
5 46 2 0 1
5 48 2 1 1
5 50 2 2 1

DCOORD
0
